&control
    calculation = 'bands'
    restart_mode='from_scratch',
    prefix='diamond',
    pseudo_dir = './',
    outdir='./tmp/'
    /
&system
    ibrav=  2, 
    celldm(1) = 6.65,
    nat= 2, 
    ntyp= 1,
    ecutwfc = 65.0,
    nbnd=10,
    /
&electrons
    diagonalization='david'
    conv_thr =  1.0d-8
    /
ATOMIC_SPECIES
    C  12.0107  C.UPF
ATOMIC_POSITIONS  { crystal }
    C 0.00 0.00 0.00
    C 0.25 0.25 0.25
K_POINTS { crystal_b }
6
    0.25 0.5 -0.25 15 !W
    0 0.5 0 21 !L
    0 0 0 30 !GAMMA
    0 -0.5 -0.5 15 !X
    -0.25 -0.5 -.75 7 !W
    -0.375 -0.375 -0.75 1000 !K