&bands
    prefix='diamond'
    outdir='./tmp'
    filband='bandsdata'
/
