!run using the following command:
!pw.x < methane.in > methane.out
&control
    calculation = 'relax'
    restart_mode='from_scratch',
    forc_conv_thr = 1.0d-3
    etot_conv_thr = 1.0d-4
    prefix='graphene',
    pseudo_dir = './',
    outdir='./tmp/'
    /
&system
    ibrav = 2, 
    celldm(1) = 40,
    nat = 5, 
    ntyp = 2,
    ecutwfc = 75.0
    /
&electrons
    diagonalization='david'
    conv_thr =  1.0d-9
    /
&IONS
    ion_dynamics = 'bfgs',
    /
ATOMIC_SPECIES
    C  12.0107  C.UPF
    H  1.00784  H.UPF
ATOMIC_POSITIONS {angstrom} !from `initial-positions.py`
    C 0.00 0.00 0.00
    H 0 0 1.09
    H 0.         -1.02747923 -0.36384948
    H 0.88982311  0.51373961 -0.36384948
    H -0.88982311  0.51373961 -0.36384948
K_POINTS {gamma}

\begin{table}[ht]
    \centering
    \begin{tabular}{|c|c|}
    \hline
    H-C-H Bond Angle & C-H Bond Length \\
    \hline
    109.488 & 1.0941 \\
    109.488 & 1.0941 \\
    109.455 & 1.0941 \\
    109.455 & 1.0941 \\
    \hline
    \end{tabular}
    \caption*{Final Methane Structure}
    \label{tab:methane-structure}
\end{table}