&control
    calculation = 'bands'
    restart_mode='from_scratch',
    prefix='graphene',
    pseudo_dir = './',
    outdir='./tmp/'
    /
&system
    ibrav = 4, 
    celldm(1) = 4.65,
    celldm(3) = 4,
    nat= 2, 
    ntyp= 1,
    ecutwfc = 75.0
    nbnd=10,
    /
&electrons
    diagonalization='david'
    conv_thr =  1.0d-8
    /
ATOMIC_SPECIES
    C  12.0107  C.UPF
ATOMIC_POSITIONS  { crystal }
    C 0.00 0.00 0.00
    C 0.333333 0.666666 0.00
K_POINTS { crystal_b }
4
    0 0 0 40 !GAMMA
    0.66666666 -0.33333333 -0.500000 20 !K
    0.5 -0.5 -0.5 38 !M
    0 0 0 0 !GAMMA