&bands
    prefix='graphene'
    outdir='./tmp'
    filband='bandsdata'
/
