&control
calculation = 'scf'
restart_mode='from_scratch',
prefix='diamond',
pseudo_dir = './',
outdir='./tmp/'
/
&system
ibrav=  2, 
celldm(1) = 6.75,
nat=  2, 
ntyp= 1,
  ecutwfc = 115,
/
&electrons
diagonalization='david'
conv_thr =  1.0d-8
/
ATOMIC_SPECIES
C  12.0107  C.UPF
ATOMIC_POSITIONS  { crystal }
C 0.00 0.00 0.00
C 0.25 0.25 0.25
K_POINTS { automatic }
4 4 4  1 1 1 